1	1	1	1	4	5	0	0	0	0	0	0
2000	1	0	0	0	0	0	0	0	0	0	0
250	1	0	60.63	0.49	1	0	0	0	0	0	0
50	150	0	0	0	0	9999	0	0	99999	0	0
50	75	0	0	0	0	9999	0	0	99999	0	0
50	75	0	0	0	0	9999	0	0	0	0	0
64	37	0	0	0	0	9999	0	0	0	0	0
20	61	0	0	0	0	9999	0	0	0	0	0
15	42	0	0	0	0	9999	0	0	0	0	0
47	47	13	13	0	623	715	10	0	0	0	0
22	27	11	9	2	116	1090	10	0	0	0	0
57	48	23	19	4	116	1080	10	0	0	0	0
65	20	6	2	4	534	648	10	0	0	0	0
6	68	30	3	27	116	1062	10	0	0	0	0

